
--- Job TSPT.gms Start 07/05/19 12:50:35 26.1.0 rf2b37b9 WEX-WEI x86 64bit/MS Windows
GAMS 26.1.0   Copyright (C) 1987-2019 GAMS Development. All rights reserved
Licensee: Manbir Sodhi, Single User License              G180228:1754AO-WIN
          University of Rhode Island, Industrial & Manufacturing EngiDC1966
          License for teaching and research at degree granting institutions
          sodhi@uri.edu                                                    
--- Starting compilation
--- TSPT.gms(15) 2 Mb
--- call GDXXRW TSPT.xlsx  @TSPT.txt

GDXXRW           26.1.0 rf2b37b9 Released Feb 02, 2019 VS8 x86 32bit/MS Window
Input file : C:\Users\Mohsen\Documents\gamsdir\projdir\TSPT.xlsx
Output file: C:\Users\Mohsen\Documents\gamsdir\projdir\TSPT.gdx
Total time = 1250 Ms
--- TSPT.gms(16) 2 Mb
--- GDXin=C:\Users\Mohsen\Documents\gamsdir\projdir\TSPT.gdx
--- TSPT.gms(27) 3 Mb
--- call GDXXRW TSPT.xlsx  @TSPT.txt

GDXXRW           26.1.0 rf2b37b9 Released Feb 02, 2019 VS8 x86 32bit/MS Window
Input file : C:\Users\Mohsen\Documents\gamsdir\projdir\TSPT.xlsx
Output file: C:\Users\Mohsen\Documents\gamsdir\projdir\TSPT.gdx
Total time = 1109 Ms
--- TSPT.gms(28) 3 Mb
--- GDXin=C:\Users\Mohsen\Documents\gamsdir\projdir\TSPT.gdx
--- TSPT.gms(38) 3 Mb
--- call GDXXRW TSPT.xlsx  @TSPT.txt

GDXXRW           26.1.0 rf2b37b9 Released Feb 02, 2019 VS8 x86 32bit/MS Window
Input file : C:\Users\Mohsen\Documents\gamsdir\projdir\TSPT.xlsx
Output file: C:\Users\Mohsen\Documents\gamsdir\projdir\TSPT.gdx
Total time = 1062 Ms
--- TSPT.gms(39) 3 Mb
--- GDXin=C:\Users\Mohsen\Documents\gamsdir\projdir\TSPT.gdx
--- TSPT.gms(114) 3 Mb
--- Starting execution: elapsed 0:00:03.776
--- TSPT.gms(98) 4 Mb
--- Generating MIP model TSP
--- TSPT.gms(99) 4 Mb
---   964 rows  1,324 columns  5,425 non-zeroes
---   841 discrete-columns
--- Executing CPLEX: elapsed 0:00:03.850

IBM ILOG CPLEX   26.1.0 rf2b37b9 Released Feb 02, 2019 WEI x86 64bit/MS Window
--- GAMS/Cplex licensed for continuous and discrete problems.
Cplex 12.8.0.0

Reading data...
Starting Cplex...
Space for names approximately 0.04 Mb
Use option 'names no' to turn use of names off
CPXPARAM_Advance                                 0
CPXPARAM_Simplex_Limits_Iterations               2000000000
CPXPARAM_TimeLimit                               2000
CPXPARAM_WorkDir                                 "C:\Users\Mohsen\Documents\gamsdir\projdir\225a\"
CPXPARAM_Threads                                 24
CPXPARAM_Parallel                                1
CPXPARAM_Tune_TimeLimit                          400
CPXPARAM_MIP_Tolerances_AbsMIPGap                0
CPXPARAM_MIP_Tolerances_MIPGap                   0.01
CPXPARAM_MIP_Display                             4
Tried aggregator 2 times.
MIP Presolve eliminated 1 rows and 22 columns.
MIP Presolve modified 40 coefficients.
Aggregator did 20 substitutions.
Reduced MIP has 943 rows, 1282 columns, and 5343 nonzeros.
Reduced MIP has 841 binaries, 0 generals, 0 SOSs, and 0 indicators.
Presolve time = 0.09 sec. (4.02 ticks)
Found incumbent of value 15115.000000 after 0.09 sec. (9.52 ticks)
Probing time = 0.02 sec. (2.99 ticks)
Cover probing fixed 20 vars, tightened 25 bounds.
Tried aggregator 1 time.
MIP Presolve eliminated 0 rows and 20 columns.
MIP Presolve modified 760 coefficients.
Reduced MIP has 943 rows, 1262 columns, and 5303 nonzeros.
Reduced MIP has 821 binaries, 0 generals, 0 SOSs, and 0 indicators.
Presolve time = 0.00 sec. (3.33 ticks)
Probing time = 0.00 sec. (2.99 ticks)
Cover probing fixed 0 vars, tightened 40 bounds.
Clique table members: 272.
MIP emphasis: balance optimality and feasibility.
MIP search method: dynamic search.
Parallel mode: deterministic, using up to 24 threads.
Parallel mode: deterministic, using up to 20 threads for concurrent optimization.
Tried aggregator 1 time.
No LP presolve or aggregator reductions.
Presolve time = 0.00 sec. (0.60 ticks)
Initializing dual steep norms . . .

Iteration log . . .
Iteration:     1   Dual objective     =          5849.000000
Iteration:   109   Dual objective     =          7394.000000
Iteration:   181   Dual objective     =          7477.000000
Iteration:   243   Dual objective     =          7477.000000
Iteration:   323   Dual objective     =          7484.900000
Initializing dual steep norms . . .

Dual simplex solved model.

Root relaxation solution time = 0.02 sec. (10.42 ticks)

        Nodes                                         Cuts/
   Node  Left     Objective  IInf  Best Integer    Best Bound    ItCnt     Gap

*     0+    0                        15115.0000     5849.0000            61.30%
Found incumbent of value 15115.000000 after 0.14 sec. (32.48 ticks)
      0     0     7524.4000    71    15115.0000     7524.4000      397   50.22%
      0     0     7699.0029    71    15115.0000     Cuts: 133      577   49.06%
*     0+    0                         8487.0000     7699.0029             9.28%
Found incumbent of value 8487.000000 after 0.45 sec. (109.79 ticks)
      0     0     7712.0003    70     8487.0000      Cuts: 56      688    9.13%
      0     0     7712.0004    73     8487.0000      Cuts: 15      708    9.13%
*     0+    0                         8393.0000     7712.0004             8.11%
Found incumbent of value 8393.000000 after 0.55 sec. (156.36 ticks)
*     0+    0                         7788.0000     7712.0004             0.98%
Found incumbent of value 7788.000000 after 0.75 sec. (207.47 ticks)

Clique cuts applied:  4
Implied bound cuts applied:  9
Flow cuts applied:  20
Mixed integer rounding cuts applied:  11
Lift and project cuts applied:  3
Gomory fractional cuts applied:  1

Root node processing (before b&c):
  Real time             =    0.80 sec. (208.62 ticks)
Parallel b&c, 24 threads:
  Real time             =    0.00 sec. (0.00 ticks)
  Sync time (average)   =    0.00 sec.
  Wait time (average)   =    0.00 sec.
                          ------------
Total (root+branch&cut) =    0.80 sec. (208.62 ticks)
MIP status(102): integer optimal, tolerance
Cplex Time: 0.80sec (det. 208.62 ticks)
Fixing integer variables, and solving final LP...
CPXPARAM_Advance                                 2
CPXPARAM_Simplex_Limits_Iterations               2000000000
CPXPARAM_TimeLimit                               2000
CPXPARAM_WorkDir                                 "C:\Users\Mohsen\Documents\gamsdir\projdir\225a\"
CPXPARAM_Threads                                 24
CPXPARAM_Parallel                                1
CPXPARAM_Tune_TimeLimit                          400
CPXPARAM_MIP_Tolerances_AbsMIPGap                0
CPXPARAM_MIP_Tolerances_MIPGap                   0.01
CPXPARAM_MIP_Display                             4
Tried aggregator 1 time.
LP Presolve eliminated 544 rows and 1283 columns.
Aggregator did 20 substitutions.
Reduced LP has 400 rows, 21 columns, and 800 nonzeros.
Presolve time = 0.00 sec. (0.77 ticks)

Iteration log . . .
Iteration:     1   Dual objective     =          7712.000000
Fixed MIP status(1): optimal
Cplex Time: 0.09sec (det. 1.65 ticks)

Solution satisfies tolerances.

MIP Solution:         7788.000000    (711 iterations, 0 nodes)
Final Solve:          7788.000000    (20 iterations)

Best possible:        7712.000448
Absolute gap:           75.999552
Relative gap:            0.009759

--- Restarting execution
--- TSPT.gms(99) 2 Mb
--- Reading solution for model TSP
--- Executing after solve: elapsed 0:00:05.012
--- TSPT.gms(104) 3 Mb
--- GDX File C:\Users\Mohsen\Documents\gamsdir\projdir\TSPT_OUTPUT.gdx
--- TSPT.gms(105) 3 Mb

GDXXRW           26.1.0 rf2b37b9 Released Feb 02, 2019 VS8 x86 32bit/MS Window
Input file : C:\Users\Mohsen\Documents\gamsdir\projdir\TSPT_OUTPUT.gdx
Output file: C:\Users\Mohsen\Documents\gamsdir\projdir\TSPT_OUTPUT.xlsx
**** Symbol MAXLENGTH not found

Any changes made to the spreadsheet were not saved
Total time = 891 Ms
--- TSPT.gms(106) 3 Mb

GDXXRW           26.1.0 rf2b37b9 Released Feb 02, 2019 VS8 x86 32bit/MS Window
Input file : C:\Users\Mohsen\Documents\gamsdir\projdir\TSPT_OUTPUT.gdx
Output file: C:\Users\Mohsen\Documents\gamsdir\projdir\TSPT_OUTPUT.xlsx
Total time = 1172 Ms
--- TSPT.gms(107) 3 Mb

GDXXRW           26.1.0 rf2b37b9 Released Feb 02, 2019 VS8 x86 32bit/MS Window
Input file : C:\Users\Mohsen\Documents\gamsdir\projdir\TSPT_OUTPUT.gdx
Output file: C:\Users\Mohsen\Documents\gamsdir\projdir\TSPT_OUTPUT.xlsx
Adding new sheet: Y
Total time = 1734 Ms
--- TSPT.gms(108) 3 Mb

GDXXRW           26.1.0 rf2b37b9 Released Feb 02, 2019 VS8 x86 32bit/MS Window
Input file : C:\Users\Mohsen\Documents\gamsdir\projdir\TSPT_OUTPUT.gdx
Output file: C:\Users\Mohsen\Documents\gamsdir\projdir\TSPT_OUTPUT.xlsx
Adding new sheet: TT
Total time = 1828 Ms
--- TSPT.gms(109) 3 Mb

GDXXRW           26.1.0 rf2b37b9 Released Feb 02, 2019 VS8 x86 32bit/MS Window
Input file : C:\Users\Mohsen\Documents\gamsdir\projdir\TSPT_OUTPUT.gdx
Output file: C:\Users\Mohsen\Documents\gamsdir\projdir\TSPT_OUTPUT.xlsx
Adding new sheet: T
Total time = 1750 Ms
--- TSPT.gms(110) 3 Mb

GDXXRW           26.1.0 rf2b37b9 Released Feb 02, 2019 VS8 x86 32bit/MS Window
Input file : C:\Users\Mohsen\Documents\gamsdir\projdir\TSPT_OUTPUT.gdx
Output file: C:\Users\Mohsen\Documents\gamsdir\projdir\TSPT_OUTPUT.xlsx
Adding new sheet: TS
Total time = 1890 Ms
--- TSPT.gms(111) 3 Mb

GDXXRW           26.1.0 rf2b37b9 Released Feb 02, 2019 VS8 x86 32bit/MS Window
Input file : C:\Users\Mohsen\Documents\gamsdir\projdir\TSPT_OUTPUT.gdx
Output file: C:\Users\Mohsen\Documents\gamsdir\projdir\TSPT_OUTPUT.xlsx
Adding new sheet: Z
Total time = 1765 Ms
--- TSPT.gms(112) 3 Mb

GDXXRW           26.1.0 rf2b37b9 Released Feb 02, 2019 VS8 x86 32bit/MS Window
Input file : C:\Users\Mohsen\Documents\gamsdir\projdir\TSPT_OUTPUT.gdx
Output file: C:\Users\Mohsen\Documents\gamsdir\projdir\TSPT_OUTPUT.xlsx
Adding new sheet: L
Total time = 1703 Ms
--- TSPT.gms(114) 3 Mb
*** Status: Normal completion
--- Job TSPT.gms Stop 07/05/19 12:50:54 elapsed 0:00:18.996
